301585.78,15.38,16.84
303593.71,15.28,16.73
318262.31,14.57,15.96
308703.85,15.02,16.46
310717.0,14.93,16.35
298691.5,15.53,17.01
305068.18,15.2,16.65
310267.91,14.95,16.37
320498.73,14.47,15.85
305779.96,15.17,16.61
308410.58,15.04,16.47
297571.58,15.59,17.07
313670.3,14.79,16.2
290060.48,15.99,17.51
307100.97,15.1,16.54
305397.89,15.19,16.63
296288.83,15.65,17.14
306517.31,15.13,16.57
308670.97,15.03,16.46
308326.82,15.04,16.48
